N = 11;
H = 6;
T = 2;

avail = array3d(1..N, 1..H, 1..T, [5, 2, 10, 4, 0, 0, 8, 1, 2, 9, 9, 6, 9, 6, 2, 5, 4, 3, 9, 8, 2, 1, 2, 3, 9, 1, 0, 4, 5, 2, 10, 7, 2, 10, 5, 6, 3, 6, 0, 2, 6, 2, 0, 9, 3, 2, 2, 4, 3, 3, 8, 7, 2, 10, 0, 1, 3, 0, 6, 4, 10, 0, 3, 2, 3, 4, 5, 0, 2, 1, 7, 1, 6, 4, 3, 0, 2, 1, 9, 9, 6, 8, 6, 1, 2, 3, 0, 5, 9, 2, 4, 8, 7, 10, 9, 5, 6, 9, 0, 6, 1, 1, 1, 5, 6, 8, 1, 8, 9, 5, 3, 8, 10, 7, 0, 7, 6, 8, 2, 0, 0, 10, 2, 6, 2, 4, 1, 3, 5, 10, 10, 10]);

r = array2d(1..H, 1..T, [1, 3, 4, 1, 3, 1, 2, 3, 5, 1, 5, 3]);
